
  12    4
  10   10   10   10

   0   0   0   0   0   4 2 3 10 11 
   7  10  10  10  10   4 9 8 5 4 
   7  10  10  10  10   2 7 6 
   4  10  10  10  10   1 6 
   9  10  10  10  10   1 6 
   6  10  10  10  10   1 12
   5  10  10  10  10   1 12
   5  10  10  10  10   1 12
   6  10  10  10  10   1 12
   6  10  10  10  10   1 12
   7  10  10  10  10   1 12
   0   0   0   0   0   0 
